CMPL model generation - running

CMPL version: 1.11.0
Authors: Thomas Schleiff, Mike Steglich
Distributed under the GPLv3 

create model instance ...
write model instance ...
CMPL model generation - finished

Solver - running


Welcome to IBM(R) ILOG(R) CPLEX(R) Interactive Optimizer 12.7.1.0
  with Simplex, Mixed Integer & Barrier Optimizers
5725-A06 5725-A29 5724-Y48 5724-Y49 5724-Y54 5724-Y55 5655-Y21
Copyright IBM Corp. 1988, 2017.  All Rights Reserved.

Type 'help' for a list of available commands.
Type 'help' followed by a command name for more
information on commands.

CPLEX> Specified objective sense: MINIMIZE
Selected objective  name:  line[1]
Selected RHS        name:  RHS
Selected bound      name:  BOUND
Problem '/tmp/cmpl.T23556.mps' read.
Read time = 0.05 sec. (8.16 ticks)
CPLEX> CPXPARAM_Read_APIEncoding                        "UTF-8"
Tried aggregator 3 times.
MIP Presolve eliminated 19309 rows and 30824 columns.
MIP Presolve modified 340 coefficients.
Aggregator did 586 substitutions.
Reduced MIP has 2460 rows, 3183 columns, and 9315 nonzeros.
Reduced MIP has 3015 binaries, 0 generals, 0 SOSs, and 0 indicators.
Presolve time = 0.05 sec. (41.64 ticks)
Found incumbent of value 873.908736 after 0.11 sec. (105.97 ticks)
Probing fixed 6 vars, tightened 0 bounds.
Probing time = 0.01 sec. (4.00 ticks)
Tried aggregator 1 time.
MIP Presolve eliminated 0 rows and 6 columns.
MIP Presolve modified 27 coefficients.
Reduced MIP has 2460 rows, 3177 columns, and 9303 nonzeros.
Reduced MIP has 3177 binaries, 0 generals, 0 SOSs, and 0 indicators.
Presolve time = 0.01 sec. (7.97 ticks)
Probing time = 0.01 sec. (2.67 ticks)
Clique table members: 5184.
MIP emphasis: balance optimality and feasibility.
MIP search method: dynamic search.
Parallel mode: none, using 1 thread.
Root relaxation solution time = 0.01 sec. (4.22 ticks)

        Nodes                                         Cuts/
   Node  Left     Objective  IInf  Best Integer    Best Bound    ItCnt     Gap

*     0+    0                          873.9087      -36.3502           104.16%
      0     0       35.7422    19      873.9087       35.7422       62   95.91%
*     0+    0                           79.2727       35.7422            54.91%
*     0+    0                           36.2850       35.7422             1.50%
      0     0        cutoff             36.2850                     62    0.00%
Elapsed time = 0.17 sec. (138.40 ticks, tree = 0.01 MB, solutions = 3)

Root node processing (before b&c):
  Real time             =    0.17 sec. (139.89 ticks)
Sequential b&c:
  Real time             =    0.00 sec. (0.00 ticks)
                          ------------
Total (root+branch&cut) =    0.17 sec. (139.89 ticks)

Solution pool: 3 solutions saved.

MIP - Integer optimal solution:  Objective =  3.6285048000e+01
Solution time =    0.17 sec.  Iterations = 62  Nodes = 0
Deterministic time = 139.99 ticks  (806.91 ticks/sec)

CPLEX> Incumbent solution written to file '/tmp/cmpl.T23556.gsol'.
CPLEX> 
CMPL: Time used for model generation: 0 seconds
CMPL: Time used for solving the model: 1 seconds


Solution written to ASCII file: results/output_generated_conf_0.1/2017-09-04-4/fair-nonlinear.sol

Solver - finished
